\ Model Rmain
\ LP format - for model browsing. Use MPS format to capture full model detail.
Minimize
  x[0] + x[1] + x[2] + x[3] + x[4] + x[5] + x[6] + x[7]
Subject To
 row0: 1.909090909090909 x[0] <= 29
 row1: 1.909090909090909 x[2] <= 19
 row2: 1.909090909090909 x[4] <= 7
 row3: 1.909090909090909 x[6] <= 21
 equal0: = -0
 equal1: 0.0353535353535354 x[2] = 0.3518518518518526
 equal2: = -0
 equal3: 0.494949494949495 x[6] = 5.444444444444446
Bounds
 x[0] >= -16
 x[1] >= 11
 x[2] >= 8
 x[3] >= -20
 x[4] >= -12
 x[5] >= -10
 x[6] >= 11
 x[7] >= 13
End
